# Solution for model r5_t18_m1_6
# Finished Task: 18 / 18
# Makespan: 494.0, Total Distance: 992.0, Total Time: 0.0743
# R O S F
0 0 6 0.0 0.0
1 1 21 0.0 0.0
2 2 5 0.0 0.0
3 3 18 0.0 0.0
4 4 20 0.0 0.0
5 2 12 168.0 207.0
6 0 19 301.0 321.0
7 3 -1 469.0 494.0
8 4 -1 453.0 481.0
9 1 22 346.0 378.0
10 2 16 421.0 448.0
11 4 8 366.0 399.0
12 2 10 332.0 367.0
13 0 -1 430.0 452.0
14 1 -1 448.0 476.0
15 3 7 412.0 437.0
16 2 -1 448.0 474.0
17 4 11 321.0 342.0
18 3 15 273.0 309.0
19 0 13 336.0 366.0
20 4 17 93.0 117.0
21 1 9 311.0 332.0
22 1 14 390.0 412.0
